
Gurobi 9.1.2 (win64, Java) logging started Fri Nov 12 00:55:36 2021

Academic license - for non-commercial use only - expires 2022-10-30
Gurobi Optimizer version 9.1.2 build v9.1.2rc0 (win64)
Thread count: 6 physical cores, 12 logical processors, using up to 12 threads
Optimize a model with 30 rows, 200 columns and 400 nonzeros
Model fingerprint: 0x0f9bbe55
Variable types: 0 continuous, 200 integer (200 binary)
Coefficient statistics:
  Matrix range     [1e+00, 9e+02]
  Objective range  [1e+02, 8e+02]
  Bounds range     [1e+00, 1e+00]
  RHS range        [1e+00, 9e+02]
Found heuristic solution: objective 4442.0000000
Presolve removed 6 rows and 121 columns
Presolve time: 0.00s
Presolved: 24 rows, 79 columns, 157 nonzeros
Variable types: 0 continuous, 79 integer (79 binary)
Presolve removed 0 rows and 3 columns
Presolved: 24 rows, 76 columns, 151 nonzeros


Root relaxation: objective 6.349358e+03, 39 iterations, 0.00 seconds

    Nodes    |    Current Node    |     Objective Bounds      |     Work
 Expl Unexpl |  Obj  Depth IntInf | Incumbent    BestBd   Gap | It/Node Time

     0     0 6349.35843    0    6 4442.00000 6349.35843  42.9%     -    0s
H    0     0                    5609.0000000 6349.35843  13.2%     -    0s
     0     0 6162.39202    0   18 5609.00000 6162.39202  9.87%     -    0s
     0     0 5954.58078    0   20 5609.00000 5954.58078  6.16%     -    0s
H    0     0                    5676.0000000 5954.58078  4.91%     -    0s
     0     0 5842.15217    0   23 5676.00000 5842.15217  2.93%     -    0s
     0     0 5840.75987    0   22 5676.00000 5840.75987  2.90%     -    0s
     0     0 5807.40000    0   24 5676.00000 5807.40000  2.32%     -    0s
     0     0 5807.40000    0   24 5676.00000 5807.40000  2.32%     -    0s
     0     0 5790.00000    0   21 5676.00000 5790.00000  2.01%     -    0s

Cutting planes:
  Gomory: 2
  Cover: 8
  MIR: 7
  StrongCG: 3

Explored 1 nodes (130 simplex iterations) in 0.17 seconds
Thread count was 12 (of 12 available processors)

Solution count 3: 5676 5609 4442 

Optimal solution found (tolerance 1.00e-12)
Best objective 5.676000000000e+03, best bound 5.676000000000e+03, gap 0.0000%
